nNurses = 178;
nHours = 30;
minHours = 9;
maxHours = 17;
maxConsec = 12;
maxPresence = 18;
demand = [28, 32, 32, 36, 32, 34, 33, 29, 28, 33, 31, 35, 31, 32, 32, 30, 35, 39, 36, 41, 44, 44, 39, 42, 40, 40, 38, 40, 35, 31];
